9
1 2 73.0
1 3 30.0
1 4 65.0
1 5 17.0
1 6 94.0
1 7 19.0
1 8 57.0
1 9 53.0
2 3 29.0
2 4 12.0
2 5 85.0
2 6 49.0
2 7 66.0
2 8 28.0
2 9 88.0
3 4 81.0
3 5 30.0
3 6 77.0
3 7 82.0
3 8 52.0
3 9 59.0
4 5 7.0
4 6 15.0
4 7 90.0
4 8 5.0
4 9 42.0
5 6 35.0
5 7 66.0
5 8 5.0
5 9 82.0
6 7 41.0
6 8 98.0
6 9 91.0
7 8 34.0
7 9 5.0
8 9 78.0
